; quart :: corpus-study/repo_src/quart/src/quart/wrappers/request.py :: wait_for at _load_form_data:343 :: naive encoding (verdict: unsat)
; Generated by snf-pipeline (encoder.py) -- run with any
; SMT-LIB2-compliant solver, e.g. `z3 quart__corpus-study_repo_src_quart_src_quart_wrappers_request.py__waitfor__load_form_data_L343__naive.smt2`
; benchmark generated from python API
(set-info :status unknown)
(declare-fun timeout_fires () Bool)
(declare-fun cleanup_ran () Bool)
(assert
 (= timeout_fires false))
(assert
 (let (($x27 (not cleanup_ran)))
(and timeout_fires $x27)))
(check-sat)
